50 8
512 952
380 595
86 658
863 637
505 661
267 471
509 698
890 402
389 590
536 934
912 216
785 780
739 337
442 721
606 286
478 952
832 637
242 241
634 652
772 497
621 819
264 308
102 870
759 733
861 722
871 264
518 796
362 518
288 422
78 653
357 559
505 684
675 636
801 110
549 255
716 875
54 480
864 275
562 886
532 499
571 679
419 587
710 425
353 440
230 602
652 649
827 222
807 609
609 580
275 848
